# Objective value = 8
WA1n 1
WA1p 0
WA2n 0
WA2p 0
WB1n 0
WB1p 1
WB2n 0
WB2p 0
WC1n 0
WC1p 1
WC2n 0
WC2p 0
WD1n 2
WD1p 0
WD2n 0
WD2p 0
WE1n 2
WE1p 0
WE2n 0
WE2p 0
WT1n 0
WT1p 1
WT2n 0
WT2p 0
100 101
a 1
b 1
c 1
d 1
e 1
f 1
g 0
h 0
i 0
j 0
k 1
l 1
